WARNING: for repeatability, setting FPU to use double precision
============================[ Problem Statistics ]=============================
|                                                                             |
|  Number of variables:            50                                         |
|  Number of clauses:             218                                         |
|  Parse time:                   0.00 s                                       |
|                                                                             |
============================[ Search Statistics ]==============================
| Conflicts |          ORIGINAL         |          LEARNT          | Progress |
|           |    Vars  Clauses Literals |    Limit  Clauses Lit/Cl |          |
===============================================================================
===============================================================================
restarts              : 1
conflicts             : 56             (37685 /sec)
decisions             : 67             (0.00 % random) (45087 /sec)
propagations          : 811            (545760 /sec)
conflict literals     : 180            (23.08 % deleted)
Memory used           : 20.00 MB
CPU time              : 0.001486 s

UNSATISFIABLE
